0 0 0 0
0 1 0 0
0 2 0 0
0 3 0 1
0 4 0 1
0 5 1 4
0 6 0 4
0 7 0 2
0 8 1 15
0 9 0 3
0 10 0 5
0 11 0 4
0 12 0 17
0 13 0 5
0 14 0 14
0 15 1 6
0 16 2 6
0 17 0 11
0 18 0 7
0 19 2 5
0 20 0 2
0 21 1 11
0 22 0 22
0 23 0 14
0 24 0 23
0 25 0 21
0 26 0 20
0 27 0 18
0 28 0 26
0 29 0 25
0 30 0 23
0 31 0 27
